Optimal - objective value 2847.00000000
      0 x_0_1                  0                     295
      1 x_0_2                  0                      76
      2 x_0_3                  0                       0
      3 x_0_4                  1                       0
      4 x_0_5                  0                     236
      5 x_1_0                  0                     295
      6 x_1_2                  0                       0
      7 x_1_3                  0                     154
      8 x_1_4                  0                      17
      9 x_1_5                  1                    -257
     10 x_2_0                  0                      76
     11 x_2_1                  1                       0
     12 x_2_3                  0                      90
     13 x_2_4                  0                       0
     14 x_2_5                  0                       0
     15 x_3_0                  1                       0
     16 x_3_1                  0                     154
     17 x_3_2                  0                      90
     18 x_3_4                  0                     301
     19 x_3_5                  0                       0
     20 x_4_0                  0                       0
     21 x_4_1                  0                      17
     22 x_4_2                  1                       0
     23 x_4_3                  0                     301
     24 x_4_5                  0                     145
     25 x_5_0                  0                     236
     26 x_5_1                  0                    -257
     27 x_5_2                  0                       0
     28 x_5_3                  1                       0
     29 x_5_4                  0                     145
     30 u_1                    3                       0
     31 u_2                    2                       0
     32 u_3                    5                       0
     33 u_4                    1                       0
     34 u_5                    4                       0
